TOUR_SECTION
2
19
94
104
131
49
33
121
60
193
166
35
96
58
119
84
102
9
20
124
100
30
15
105
116
165
63
147
88
137
7
103
158
177
45
173
76
140
106
68
36
186
53
127
83
57
61
153
150
174
70
69
184
136
99
38
198
56
185
18
139
157
25
144
78
148
12
23
146
86
154
182
32
93
168
149
114
138
155
5
161
4
75
27
6
1
164
3
37
188
8
118
110
195
71
160
97
194
126
187
107
122
183
95
169
163
117
85
11
191
200
48
123
196
89
44
41
72
128
115
16
113
77
181
43
10
98
199
172
55
26
189
82
13
197
112
21
159
22
51
87
151
180
64
142
192
130
175
29
91
101
111
40
125
17
129
59
132
74
145
179
108
34
141
50
133
167
62
170
176
109
46
28
156
52
92
73
79
54
24
31
120
67
42
162
80
178
81
47
134
190
14
135
152
90
66
39
143
65
171
-1
EOF